/*********************************************
 * OPL 12.6.0.0 Data
 * Author: Adrian Rodriguez Bazaga, Pau Rodriguez Esmerats
 * Creation Date: 01/12/2017 at 05:00:18
 *********************************************/

nNurses=936;
maxConsec=2;
maxPresence=7;
maxHours=5;
minHours=1;
demand= [183 190 277 277 190 277 277 195 199 109 17 24 28 37 36 32 26 22 19 13 147 275 136 227  ];
